100 151068
76 64 18 71 26 38 46 37 3 85 87 78 12 22 49 84 6 42 54 66 79 70 55 36 59 45 20 15 21 1 56 19 13 43 41 92 29 33 57 63 69 40 5 52 25 16 95 2 9 7 17 83 32 100 80 14 34 35 10 65 73 60 24 47 99 11 91 88 86 62 81 58 30 98 48 93 74 97 77 67 51 44 27 50 68 61 31 82 90 23 94 53 96 75 89 4 39 72 8 28 
